NAME : TW_45_seed_None_id_3
TYPE : CVRPTW
DIMENSION : 11
EDGE_WEIGHT_TYPE : EUC_2D
CAPACITY : 25
SERVICE_TIME : 100
LATE_COEFF : 0
NODE_COORD_SECTION
1	585	540
2	541	443
3	892	948
4	170	89
5	731	514
6	879	32
7	605	594
8	612	655
9	981	516
10	166	113
11	976	645
DEMAND_SECTION
1	0
2	7
3	2
4	8
5	10
6	3
7	8
8	6
9	3
10	5
11	1
TIME_WINDOW_SECTION
1	0	10000
2	0	10000
3	0	10000
4	0	10000
5	0	10000
6	0	10000
7	0	10000
8	0	10000
9	0	10000
10	0	10000
11	0	10000
DEPOT_SECTION
1
-1
EOF
